c Output_time 26.03.2020 18:13:10_+0100 1585242790093672855
c ** Program information **
c program_name                          "QBRG_debug"
c version                               "0.3.20"
c date                                  "25.3.2020"
c gid_id                                "673970833836058123f633335630c185360d632e"
c author                                "Oliver Kullmann"
c url                                   "https://github.com/OKullmann/oklibrary/blob/master/Satisfiability/Transformers/Generators/Random/QBRG.cpp"
c ** Machine information **
c machine_name                          "chyna-Lenovo-G50-70"
c bogomips                              3791.08
c ** Compilation information **
c compiler_version                      "g++ 7.5.0"
c compilation_date                      "Mar_26_2020 11:16:30"
c compilation_options                   "--std=c++17 -pedantic -fmax-errors=5 -Wall -Wextra -g -D_GLIBCXX_DEBUG"
c NDEBUG                                0
c OPTIMIZE                              0
c ** Parameters **
c command-line                          "./QBRG_debug" "e40 a40 40" "157*1,1|2-2,1|3-3,1" "" "1,t" ""
c output                                "QuBlRaGe_120_157_1585242790093490217.qdimacs"
c options                               "filtered,renamed"
c num_quantifier_blocks                 3
c  quantifier_blocks                    1:e1-40 2:a41-80 3:e81-120
c num_clause-blocks                     1
c  clause-blocks                        157 * {1-40,1,1/2} | {41-80,1,1/2} | {81-120,1,1/2}
c num_e-seeds                           30+2=32
c  e-seeds                              1 0 1 0 4 120 2 40 1 40 0 40 1 157 3 1 1 1 1 2 2 2 1 1 2 3 3 1 1 2 1 1585242790093489782
p cnf 119 157
e 1 2 3 4 5 6 7 8 9 10 11 12 13 14 15 16 17 18 19 20 21 22 23 24 25 26 27 28 29 30 31 32 33 34 35 36 37 38 39 40 0
a 41 42 43 44 45 46 47 48 49 50 51 52 53 54 55 56 57 58 59 60 61 62 63 64 65 66 67 68 69 70 71 72 73 74 75 76 77 78 79 80 0
e 81 82 83 84 85 86 87 88 89 90 91 92 93 94 95 96 97 98 99 100 101 102 103 104 105 106 107 108 109 110 111 112 113 114 115 116 117 118 119 0
-34 -45 -81 0
14 51 -81 0
4 44 81 0
-13 -46 81 0
-25 -52 81 0
1 -61 81 0
-29 -76 81 0
-20 -62 -82 0
40 66 -82 0
25 70 -82 0
-21 -46 82 0
28 63 83 0
-38 70 83 0
-5 -42 -84 0
-9 77 -84 0
34 -49 84 0
29 -45 -85 0
-26 56 -85 0
14 -72 -85 0
-14 47 -86 0
-24 73 -86 0
-3 -58 86 0
-37 -61 86 0
-33 65 86 0
1 -50 -87 0
23 -74 87 0
-23 76 -88 0
19 50 88 0
28 73 88 0
29 44 89 0
27 67 89 0
-10 49 -90 0
32 59 -90 0
-29 66 -90 0
-2 -67 -90 0
-18 75 -90 0
32 -47 90 0
-36 71 90 0
-30 48 -91 0
22 68 -91 0
30 71 -91 0
-36 42 91 0
29 54 91 0
20 -57 91 0
23 -50 -92 0
10 -74 -92 0
24 46 92 0
10 -77 92 0
-3 -44 -93 0
25 47 -93 0
-40 -51 -93 0
-15 48 93 0
21 48 93 0
16 -76 93 0
25 54 -94 0
30 77 -94 0
20 -49 94 0
40 -44 95 0
6 -50 95 0
-22 54 -96 0
27 -41 96 0
-7 -45 96 0
-11 -51 96 0
-29 -51 -97 0
-24 -75 -97 0
24 -72 97 0
-40 -57 -98 0
39 74 -98 0
29 -51 98 0
-1 72 98 0
20 76 98 0
33 60 -99 0
6 61 -99 0
-39 -78 -99 0
-39 47 100 0
-11 55 100 0
-35 63 100 0
28 -77 100 0
-24 61 -101 0
-30 69 -101 0
-25 -79 -101 0
29 -52 101 0
-33 56 101 0
-23 52 -102 0
-32 -59 -102 0
19 -63 -102 0
25 -49 102 0
16 67 102 0
36 -71 102 0
-22 73 102 0
-17 -78 102 0
35 -76 -103 0
-33 76 -103 0
-37 -51 103 0
-8 -56 103 0
14 72 103 0
4 75 103 0
11 -71 -104 0
33 -46 104 0
13 50 104 0
26 50 104 0
5 55 105 0
-28 63 -106 0
-29 -56 106 0
40 -72 106 0
30 74 106 0
-19 -69 -107 0
-2 -56 107 0
36 44 -108 0
-8 48 -108 0
-24 65 -108 0
29 -76 -108 0
18 -61 108 0
-10 49 -109 0
5 -75 -109 0
-1 -45 109 0
-37 57 -110 0
-4 76 -110 0
6 -51 110 0
-37 -70 -111 0
-26 -54 111 0
12 43 -112 0
-30 -68 -112 0
27 42 112 0
12 79 112 0
-14 51 -113 0
19 -53 -113 0
8 -54 -113 0
30 -65 -113 0
-5 65 -113 0
14 -67 -113 0
27 64 113 0
14 -67 113 0
40 -49 114 0
-3 -61 114 0
1 64 114 0
-2 72 114 0
13 -74 114 0
5 44 115 0
12 51 -116 0
38 45 116 0
-13 -47 -117 0
-18 51 -117 0
2 59 -117 0
-20 80 -117 0
-40 -59 117 0
-3 73 117 0
-7 -50 -118 0
-3 -56 -118 0
-6 -58 -118 0
-23 -73 -118 0
-9 77 -118 0
-31 -79 -118 0
24 41 118 0
21 79 118 0
22 -72 -119 0
-5 -50 119 0
